1
272 229 216 0 0 0 a
2
272 229 216 0 0 0 a
272 229 216 0 0 216 a
3
272 229 216 0 0 0 a
272 229 216 0 0 216 a
272 229 216 0 0 432 a
4
272 229 216 0 0 0 a
272 229 216 0 0 216 a
272 229 216 0 0 432 a
272 229 216 272 0 432 a
5
272 229 216 0 0 0 a
272 229 216 0 0 216 a
272 229 216 0 0 432 a
272 229 216 272 0 432 a
272 229 216 272 229 432 a
6
272 229 216 0 0 0 a
272 229 216 0 0 216 a
272 229 216 0 0 432 a
272 229 216 272 0 432 a
272 229 216 272 229 432 a
272 229 216 0 229 432 a
7
272 229 216 0 0 0 a
272 229 216 0 0 216 a
272 229 216 0 0 432 a
272 229 216 272 0 432 a
272 229 216 272 229 432 a
272 229 216 0 229 432 a
285 182 138 272 0 216 a
8
272 229 216 0 0 0 a
272 229 216 0 0 216 a
272 229 216 0 0 432 a
272 229 216 272 0 432 a
272 229 216 272 229 432 a
272 229 216 0 229 432 a
285 182 138 272 0 216 a
285 182 138 272 182 216 a
9
272 229 216 0 0 0 a
272 229 216 0 0 216 a
272 229 216 0 0 432 a
272 229 216 272 0 432 a
272 229 216 272 229 432 a
272 229 216 0 229 432 a
285 182 138 272 0 216 a
285 182 138 272 182 216 a
236 124 188 272 364 216 a
10
272 229 216 0 0 0 a
272 229 216 0 0 216 a
272 229 216 0 0 432 a
272 229 216 272 0 432 a
272 229 216 272 229 432 a
272 229 216 0 229 432 a
285 182 138 272 0 216 a
285 182 138 272 182 216 a
236 124 188 272 364 216 a
272 234 105 0 229 216 a
11
272 229 216 0 0 0 a
272 229 216 0 0 216 a
272 229 216 0 0 432 a
272 229 216 272 0 432 a
272 229 216 272 229 432 a
272 229 216 0 229 432 a
285 182 138 272 0 216 a
285 182 138 272 182 216 a
236 124 188 272 364 216 a
272 234 105 0 229 216 a
272 234 105 0 229 321 a
12
272 229 216 0 0 0 a
272 229 216 0 0 216 a
272 229 216 0 0 432 a
272 229 216 272 0 432 a
272 229 216 272 229 432 a
272 229 216 0 229 432 a
285 182 138 272 0 216 a
285 182 138 272 182 216 a
236 124 188 272 364 216 a
272 234 105 0 229 216 a
272 234 105 0 229 321 a
285 182 138 0 229 0 a
13
272 229 216 0 0 0 a
272 229 216 0 0 216 a
272 229 216 0 0 432 a
272 229 216 272 0 432 a
272 229 216 272 229 432 a
272 229 216 0 229 432 a
285 182 138 272 0 216 a
285 182 138 272 182 216 a
236 124 188 272 364 216 a
272 234 105 0 229 216 a
272 234 105 0 229 321 a
285 182 138 0 229 0 a
285 182 138 285 0 0 a
14
272 229 216 0 0 0 a
272 229 216 0 0 216 a
272 229 216 0 0 432 a
272 229 216 272 0 432 a
272 229 216 272 229 432 a
272 229 216 0 229 432 a
285 182 138 272 0 216 a
285 182 138 272 182 216 a
236 124 188 272 364 216 a
272 234 105 0 229 216 a
272 234 105 0 229 321 a
285 182 138 0 229 0 a
285 182 138 285 0 0 a
285 182 138 285 182 0 a
15
272 229 216 0 0 0 a
272 229 216 0 0 216 a
272 229 216 0 0 432 a
272 229 216 272 0 432 a
272 229 216 272 229 432 a
272 229 216 0 229 432 a
285 182 138 272 0 216 a
285 182 138 272 182 216 a
236 124 188 272 364 216 a
272 234 105 0 229 216 a
272 234 105 0 229 321 a
285 182 138 0 229 0 a
285 182 138 285 0 0 a
285 182 138 285 182 0 a
236 124 188 285 364 0 a
16
272 229 216 0 0 0 a
272 229 216 0 0 216 a
272 229 216 0 0 432 a
272 229 216 272 0 432 a
272 229 216 272 229 432 a
272 229 216 0 229 432 a
285 182 138 272 0 216 a
285 182 138 272 182 216 a
236 124 188 272 364 216 a
272 234 105 0 229 216 a
272 234 105 0 229 321 a
285 182 138 0 229 0 a
285 182 138 285 0 0 a
285 182 138 285 182 0 a
236 124 188 285 364 0 a
246 80 140 0 411 0 a
16
272 229 216 0 0 0 a
272 229 216 0 0 216 a
272 229 216 0 0 432 a
272 229 216 272 0 432 a
272 229 216 272 229 432 a
272 229 216 0 229 432 a
285 182 138 272 0 216 a
285 182 138 272 182 216 a
236 124 188 272 364 216 a
272 234 105 0 229 216 a
272 234 105 0 229 321 a
285 182 138 0 229 0 a
285 182 138 285 0 0 a
285 182 138 285 182 0 a
236 124 188 285 364 0 a
246 80 140 0 411 0 a
16
272 229 216 0 0 0 a
272 229 216 0 0 216 a
272 229 216 0 0 432 a
272 229 216 272 0 432 a
272 229 216 272 229 432 a
272 229 216 0 229 432 a
285 182 138 272 0 216 a
285 182 138 272 182 216 a
236 124 188 272 364 216 a
272 234 105 0 229 216 a
272 234 105 0 229 321 a
285 182 138 0 229 0 a
285 182 138 285 0 0 a
285 182 138 285 182 0 a
236 124 188 285 364 0 a
246 80 140 0 411 0 a
16
272 229 216 0 0 0 a
272 229 216 0 0 216 a
272 229 216 0 0 432 a
272 229 216 272 0 432 a
272 229 216 272 229 432 a
272 229 216 0 229 432 a
285 182 138 272 0 216 a
285 182 138 272 182 216 a
236 124 188 272 364 216 a
272 234 105 0 229 216 a
272 234 105 0 229 321 a
285 182 138 0 229 0 a
285 182 138 285 0 0 a
285 182 138 285 182 0 a
236 124 188 285 364 0 a
246 80 140 0 411 0 a
16
272 229 216 0 0 0 a
272 229 216 0 0 216 a
272 229 216 0 0 432 a
272 229 216 272 0 432 a
272 229 216 272 229 432 a
272 229 216 0 229 432 a
285 182 138 272 0 216 a
285 182 138 272 182 216 a
236 124 188 272 364 216 a
272 234 105 0 229 216 a
272 234 105 0 229 321 a
285 182 138 0 229 0 a
285 182 138 285 0 0 a
285 182 138 285 182 0 a
236 124 188 285 364 0 a
246 80 140 0 411 0 a
15
272 229 216 0 0 0 a
272 229 216 0 0 216 a
272 229 216 0 0 432 a
272 229 216 272 0 432 a
272 229 216 272 229 432 a
272 229 216 0 229 432 a
285 182 138 272 0 216 a
285 182 138 272 182 216 a
236 124 188 272 364 216 a
272 234 105 0 229 216 a
272 234 105 0 229 321 a
285 182 138 0 229 0 a
285 182 138 285 0 0 a
285 182 138 285 182 0 a
236 124 188 285 364 0 a
16
272 229 216 0 0 0 a
272 229 216 0 0 216 a
272 229 216 0 0 432 a
272 229 216 272 0 432 a
272 229 216 272 229 432 a
272 229 216 0 229 432 a
285 182 138 272 0 216 a
285 182 138 272 182 216 a
236 124 188 272 364 216 a
272 234 105 0 229 216 a
272 234 105 0 229 321 a
285 182 138 0 229 0 a
285 182 138 285 0 0 a
285 182 138 285 182 0 a
236 124 188 285 364 0 a
246 80 140 0 411 0 a
16
272 229 216 0 0 0 a
272 229 216 0 0 216 a
272 229 216 0 0 432 a
272 229 216 272 0 432 a
272 229 216 272 229 432 a
272 229 216 0 229 432 a
285 182 138 272 0 216 a
285 182 138 272 182 216 a
236 124 188 272 364 216 a
272 234 105 0 229 216 a
272 234 105 0 229 321 a
285 182 138 0 229 0 a
285 182 138 285 0 0 a
285 182 138 285 182 0 a
236 124 188 285 364 0 a
246 80 140 0 411 0 a
16
272 229 216 0 0 0 a
272 229 216 0 0 216 a
272 229 216 0 0 432 a
272 229 216 272 0 432 a
272 229 216 272 229 432 a
272 229 216 0 229 432 a
285 182 138 272 0 216 a
285 182 138 272 182 216 a
236 124 188 272 364 216 a
272 234 105 0 229 216 a
272 234 105 0 229 321 a
285 182 138 0 229 0 a
285 182 138 285 0 0 a
285 182 138 285 182 0 a
236 124 188 285 364 0 a
246 80 140 0 411 0 a
16
272 229 216 0 0 0 a
272 229 216 0 0 216 a
272 229 216 0 0 432 a
272 229 216 272 0 432 a
272 229 216 272 229 432 a
272 229 216 0 229 432 a
285 182 138 272 0 216 a
285 182 138 272 182 216 a
236 124 188 272 364 216 a
272 234 105 0 229 216 a
272 234 105 0 229 321 a
285 182 138 0 229 0 a
285 182 138 285 0 0 a
285 182 138 285 182 0 a
236 124 188 285 364 0 a
246 80 140 0 411 0 a
16
272 229 216 0 0 0 a
272 229 216 0 0 216 a
272 229 216 0 0 432 a
272 229 216 272 0 432 a
272 229 216 272 229 432 a
272 229 216 0 229 432 a
285 182 138 272 0 216 a
285 182 138 272 182 216 a
236 124 188 272 364 216 a
272 234 105 0 229 216 a
272 234 105 0 229 321 a
285 182 138 0 229 0 a
285 182 138 285 0 0 a
285 182 138 285 182 0 a
236 124 188 285 364 0 a
246 80 140 0 411 0 a
15
272 229 216 0 0 0 a
272 229 216 0 0 216 a
272 229 216 0 0 432 a
272 229 216 272 0 432 a
272 229 216 272 229 432 a
272 229 216 0 229 432 a
285 182 138 272 0 216 a
285 182 138 272 182 216 a
236 124 188 272 364 216 a
272 234 105 0 229 216 a
272 234 105 0 229 321 a
285 182 138 0 229 0 a
285 182 138 285 0 0 a
285 182 138 285 182 0 a
236 124 188 285 364 0 a
16
272 229 216 0 0 0 a
272 229 216 0 0 216 a
272 229 216 0 0 432 a
272 229 216 272 0 432 a
272 229 216 272 229 432 a
272 229 216 0 229 432 a
285 182 138 272 0 216 a
285 182 138 272 182 216 a
236 124 188 272 364 216 a
272 234 105 0 229 216 a
272 234 105 0 229 321 a
285 182 138 0 229 0 a
285 182 138 285 0 0 a
285 182 138 285 182 0 a
236 124 188 285 364 0 a
246 80 140 0 411 0 a
16
272 229 216 0 0 0 a
272 229 216 0 0 216 a
272 229 216 0 0 432 a
272 229 216 272 0 432 a
272 229 216 272 229 432 a
272 229 216 0 229 432 a
285 182 138 272 0 216 a
285 182 138 272 182 216 a
236 124 188 272 364 216 a
272 234 105 0 229 216 a
272 234 105 0 229 321 a
285 182 138 0 229 0 a
285 182 138 285 0 0 a
285 182 138 285 182 0 a
236 124 188 285 364 0 a
246 80 140 0 411 0 a
16
272 229 216 0 0 0 a
272 229 216 0 0 216 a
272 229 216 0 0 432 a
272 229 216 272 0 432 a
272 229 216 272 229 432 a
272 229 216 0 229 432 a
285 182 138 272 0 216 a
285 182 138 272 182 216 a
236 124 188 272 364 216 a
272 234 105 0 229 216 a
272 234 105 0 229 321 a
285 182 138 0 229 0 a
285 182 138 285 0 0 a
285 182 138 285 182 0 a
236 124 188 285 364 0 a
246 80 140 0 411 0 a
16
272 229 216 0 0 0 a
272 229 216 0 0 216 a
272 229 216 0 0 432 a
272 229 216 272 0 432 a
272 229 216 272 229 432 a
272 229 216 0 229 432 a
285 182 138 272 0 216 a
285 182 138 272 182 216 a
236 124 188 272 364 216 a
272 234 105 0 229 216 a
272 234 105 0 229 321 a
285 182 138 0 229 0 a
285 182 138 285 0 0 a
285 182 138 285 182 0 a
236 124 188 285 364 0 a
246 80 140 0 411 0 a
16
272 229 216 0 0 0 a
272 229 216 0 0 216 a
272 229 216 0 0 432 a
272 229 216 272 0 432 a
272 229 216 272 229 432 a
272 229 216 0 229 432 a
285 182 138 272 0 216 a
285 182 138 272 182 216 a
236 124 188 272 364 216 a
272 234 105 0 229 216 a
272 234 105 0 229 321 a
285 182 138 0 229 0 a
285 182 138 285 0 0 a
285 182 138 285 182 0 a
236 124 188 285 364 0 a
246 80 140 0 411 0 a
15
272 229 216 0 0 0 a
272 229 216 0 0 216 a
272 229 216 0 0 432 a
272 229 216 272 0 432 a
272 229 216 272 229 432 a
272 229 216 0 229 432 a
285 182 138 272 0 216 a
285 182 138 272 182 216 a
236 124 188 272 364 216 a
272 234 105 0 229 216 a
272 234 105 0 229 321 a
285 182 138 0 229 0 a
285 182 138 285 0 0 a
285 182 138 285 182 0 a
236 124 188 285 364 0 a
16
272 229 216 0 0 0 a
272 229 216 0 0 216 a
272 229 216 0 0 432 a
272 229 216 272 0 432 a
272 229 216 272 229 432 a
272 229 216 0 229 432 a
285 182 138 272 0 216 a
285 182 138 272 182 216 a
236 124 188 272 364 216 a
272 234 105 0 229 216 a
272 234 105 0 229 321 a
285 182 138 0 229 0 a
285 182 138 285 0 0 a
285 182 138 285 182 0 a
236 124 188 285 364 0 a
246 80 140 0 411 0 a
16
272 229 216 0 0 0 a
272 229 216 0 0 216 a
272 229 216 0 0 432 a
272 229 216 272 0 432 a
272 229 216 272 229 432 a
272 229 216 0 229 432 a
285 182 138 272 0 216 a
285 182 138 272 182 216 a
236 124 188 272 364 216 a
272 234 105 0 229 216 a
272 234 105 0 229 321 a
285 182 138 0 229 0 a
285 182 138 285 0 0 a
285 182 138 285 182 0 a
236 124 188 285 364 0 a
246 80 140 0 411 0 a
16
272 229 216 0 0 0 a
272 229 216 0 0 216 a
272 229 216 0 0 432 a
272 229 216 272 0 432 a
272 229 216 272 229 432 a
272 229 216 0 229 432 a
285 182 138 272 0 216 a
285 182 138 272 182 216 a
236 124 188 272 364 216 a
272 234 105 0 229 216 a
272 234 105 0 229 321 a
285 182 138 0 229 0 a
285 182 138 285 0 0 a
285 182 138 285 182 0 a
236 124 188 285 364 0 a
246 80 140 0 411 0 a
16
272 229 216 0 0 0 a
272 229 216 0 0 216 a
272 229 216 0 0 432 a
272 229 216 272 0 432 a
272 229 216 272 229 432 a
272 229 216 0 229 432 a
285 182 138 272 0 216 a
285 182 138 272 182 216 a
236 124 188 272 364 216 a
272 234 105 0 229 216 a
272 234 105 0 229 321 a
285 182 138 0 229 0 a
285 182 138 285 0 0 a
285 182 138 285 182 0 a
236 124 188 285 364 0 a
246 80 140 0 411 0 a
16
272 229 216 0 0 0 a
272 229 216 0 0 216 a
272 229 216 0 0 432 a
272 229 216 272 0 432 a
272 229 216 272 229 432 a
272 229 216 0 229 432 a
285 182 138 272 0 216 a
285 182 138 272 182 216 a
236 124 188 272 364 216 a
272 234 105 0 229 216 a
272 234 105 0 229 321 a
285 182 138 0 229 0 a
285 182 138 285 0 0 a
285 182 138 285 182 0 a
236 124 188 285 364 0 a
246 80 140 0 411 0 a
15
272 229 216 0 0 0 a
272 229 216 0 0 216 a
272 229 216 0 0 432 a
272 229 216 272 0 432 a
272 229 216 272 229 432 a
272 229 216 0 229 432 a
285 182 138 272 0 216 a
285 182 138 272 182 216 a
236 124 188 272 364 216 a
272 234 105 0 229 216 a
272 234 105 0 229 321 a
285 182 138 0 229 0 a
285 182 138 285 0 0 a
285 182 138 285 182 0 a
240 135 126 285 364 0 a
16
272 229 216 0 0 0 a
272 229 216 0 0 216 a
272 229 216 0 0 432 a
272 229 216 272 0 432 a
272 229 216 272 229 432 a
272 229 216 0 229 432 a
285 182 138 272 0 216 a
285 182 138 272 182 216 a
236 124 188 272 364 216 a
272 234 105 0 229 216 a
272 234 105 0 229 321 a
285 182 138 0 229 0 a
285 182 138 285 0 0 a
285 182 138 285 182 0 a
240 135 126 285 364 0 a
246 80 140 0 411 0 a
16
272 229 216 0 0 0 a
272 229 216 0 0 216 a
272 229 216 0 0 432 a
272 229 216 272 0 432 a
272 229 216 272 229 432 a
272 229 216 0 229 432 a
285 182 138 272 0 216 a
285 182 138 272 182 216 a
236 124 188 272 364 216 a
272 234 105 0 229 216 a
272 234 105 0 229 321 a
285 182 138 0 229 0 a
285 182 138 285 0 0 a
285 182 138 285 182 0 a
240 135 126 285 364 0 a
246 80 140 0 411 0 a
16
272 229 216 0 0 0 a
272 229 216 0 0 216 a
272 229 216 0 0 432 a
272 229 216 272 0 432 a
272 229 216 272 229 432 a
272 229 216 0 229 432 a
285 182 138 272 0 216 a
285 182 138 272 182 216 a
236 124 188 272 364 216 a
272 234 105 0 229 216 a
272 234 105 0 229 321 a
285 182 138 0 229 0 a
285 182 138 285 0 0 a
285 182 138 285 182 0 a
240 135 126 285 364 0 a
246 80 140 0 411 0 a
16
272 229 216 0 0 0 a
272 229 216 0 0 216 a
272 229 216 0 0 432 a
272 229 216 272 0 432 a
272 229 216 272 229 432 a
272 229 216 0 229 432 a
285 182 138 272 0 216 a
285 182 138 272 182 216 a
236 124 188 272 364 216 a
272 234 105 0 229 216 a
272 234 105 0 229 321 a
285 182 138 0 229 0 a
285 182 138 285 0 0 a
285 182 138 285 182 0 a
240 135 126 285 364 0 a
246 80 140 0 411 0 a
16
272 229 216 0 0 0 a
272 229 216 0 0 216 a
272 229 216 0 0 432 a
272 229 216 272 0 432 a
272 229 216 272 229 432 a
272 229 216 0 229 432 a
285 182 138 272 0 216 a
285 182 138 272 182 216 a
236 124 188 272 364 216 a
272 234 105 0 229 216 a
272 234 105 0 229 321 a
285 182 138 0 229 0 a
285 182 138 285 0 0 a
285 182 138 285 182 0 a
240 135 126 285 364 0 a
246 80 140 0 411 0 a
15
272 229 216 0 0 0 a
272 229 216 0 0 216 a
272 229 216 0 0 432 a
272 229 216 272 0 432 a
272 229 216 272 229 432 a
272 229 216 0 229 432 a
285 182 138 272 0 216 a
285 182 138 272 182 216 a
236 124 188 272 364 216 a
272 234 105 0 229 216 a
272 234 105 0 229 321 a
285 182 138 0 229 0 a
285 182 138 285 0 0 a
285 182 138 285 182 0 a
240 126 135 285 364 0 a
16
272 229 216 0 0 0 a
272 229 216 0 0 216 a
272 229 216 0 0 432 a
272 229 216 272 0 432 a
272 229 216 272 229 432 a
272 229 216 0 229 432 a
285 182 138 272 0 216 a
285 182 138 272 182 216 a
236 124 188 272 364 216 a
272 234 105 0 229 216 a
272 234 105 0 229 321 a
285 182 138 0 229 0 a
285 182 138 285 0 0 a
285 182 138 285 182 0 a
240 126 135 285 364 0 a
246 80 140 0 411 0 a
16
272 229 216 0 0 0 a
272 229 216 0 0 216 a
272 229 216 0 0 432 a
272 229 216 272 0 432 a
272 229 216 272 229 432 a
272 229 216 0 229 432 a
285 182 138 272 0 216 a
285 182 138 272 182 216 a
236 124 188 272 364 216 a
272 234 105 0 229 216 a
272 234 105 0 229 321 a
285 182 138 0 229 0 a
285 182 138 285 0 0 a
285 182 138 285 182 0 a
240 126 135 285 364 0 a
246 80 140 0 411 0 a
16
272 229 216 0 0 0 a
272 229 216 0 0 216 a
272 229 216 0 0 432 a
272 229 216 272 0 432 a
272 229 216 272 229 432 a
272 229 216 0 229 432 a
285 182 138 272 0 216 a
285 182 138 272 182 216 a
236 124 188 272 364 216 a
272 234 105 0 229 216 a
272 234 105 0 229 321 a
285 182 138 0 229 0 a
285 182 138 285 0 0 a
285 182 138 285 182 0 a
240 126 135 285 364 0 a
246 80 140 0 411 0 a
16
272 229 216 0 0 0 a
272 229 216 0 0 216 a
272 229 216 0 0 432 a
272 229 216 272 0 432 a
272 229 216 272 229 432 a
272 229 216 0 229 432 a
285 182 138 272 0 216 a
285 182 138 272 182 216 a
236 124 188 272 364 216 a
272 234 105 0 229 216 a
272 234 105 0 229 321 a
285 182 138 0 229 0 a
285 182 138 285 0 0 a
285 182 138 285 182 0 a
240 126 135 285 364 0 a
246 80 140 0 411 0 a
16
272 229 216 0 0 0 a
272 229 216 0 0 216 a
272 229 216 0 0 432 a
272 229 216 272 0 432 a
272 229 216 272 229 432 a
272 229 216 0 229 432 a
285 182 138 272 0 216 a
285 182 138 272 182 216 a
236 124 188 272 364 216 a
272 234 105 0 229 216 a
272 234 105 0 229 321 a
285 182 138 0 229 0 a
285 182 138 285 0 0 a
285 182 138 285 182 0 a
240 126 135 285 364 0 a
246 80 140 0 411 0 a
15
272 229 216 0 0 0 a
272 229 216 0 0 216 a
272 229 216 0 0 432 a
272 229 216 272 0 432 a
272 229 216 272 229 432 a
272 229 216 0 229 432 a
285 182 138 272 0 216 a
285 182 138 272 182 216 a
236 124 188 272 364 216 a
272 234 105 0 229 216 a
272 234 105 0 229 321 a
285 182 138 0 229 0 a
285 182 138 285 0 0 a
285 182 138 285 182 0 a
240 135 126 285 364 0 a
16
272 229 216 0 0 0 a
272 229 216 0 0 216 a
272 229 216 0 0 432 a
272 229 216 272 0 432 a
272 229 216 272 229 432 a
272 229 216 0 229 432 a
285 182 138 272 0 216 a
285 182 138 272 182 216 a
236 124 188 272 364 216 a
272 234 105 0 229 216 a
272 234 105 0 229 321 a
285 182 138 0 229 0 a
285 182 138 285 0 0 a
285 182 138 285 182 0 a
240 135 126 285 364 0 a
246 80 140 0 411 0 a
16
272 229 216 0 0 0 a
272 229 216 0 0 216 a
272 229 216 0 0 432 a
272 229 216 272 0 432 a
272 229 216 272 229 432 a
272 229 216 0 229 432 a
285 182 138 272 0 216 a
285 182 138 272 182 216 a
236 124 188 272 364 216 a
272 234 105 0 229 216 a
272 234 105 0 229 321 a
285 182 138 0 229 0 a
285 182 138 285 0 0 a
285 182 138 285 182 0 a
240 135 126 285 364 0 a
246 80 140 0 411 0 a
16
272 229 216 0 0 0 a
272 229 216 0 0 216 a
272 229 216 0 0 432 a
272 229 216 272 0 432 a
272 229 216 272 229 432 a
272 229 216 0 229 432 a
285 182 138 272 0 216 a
285 182 138 272 182 216 a
236 124 188 272 364 216 a
272 234 105 0 229 216 a
272 234 105 0 229 321 a
285 182 138 0 229 0 a
285 182 138 285 0 0 a
285 182 138 285 182 0 a
240 135 126 285 364 0 a
246 80 140 0 411 0 a
16
272 229 216 0 0 0 a
272 229 216 0 0 216 a
272 229 216 0 0 432 a
272 229 216 272 0 432 a
272 229 216 272 229 432 a
272 229 216 0 229 432 a
285 182 138 272 0 216 a
285 182 138 272 182 216 a
236 124 188 272 364 216 a
272 234 105 0 229 216 a
272 234 105 0 229 321 a
285 182 138 0 229 0 a
285 182 138 285 0 0 a
285 182 138 285 182 0 a
240 135 126 285 364 0 a
246 80 140 0 411 0 a
16
272 229 216 0 0 0 a
272 229 216 0 0 216 a
272 229 216 0 0 432 a
272 229 216 272 0 432 a
272 229 216 272 229 432 a
272 229 216 0 229 432 a
285 182 138 272 0 216 a
285 182 138 272 182 216 a
236 124 188 272 364 216 a
272 234 105 0 229 216 a
272 234 105 0 229 321 a
285 182 138 0 229 0 a
285 182 138 285 0 0 a
285 182 138 285 182 0 a
240 135 126 285 364 0 a
246 80 140 0 411 0 a
15
272 229 216 0 0 0 a
272 229 216 0 0 216 a
272 229 216 0 0 432 a
272 229 216 272 0 432 a
272 229 216 272 229 432 a
272 229 216 0 229 432 a
285 182 138 272 0 216 a
285 182 138 272 182 216 a
236 124 188 272 364 216 a
272 234 105 0 229 216 a
272 234 105 0 229 321 a
285 182 138 0 229 0 a
285 182 138 285 0 0 a
285 182 138 285 182 0 a
240 126 135 285 364 0 a
16
272 229 216 0 0 0 a
272 229 216 0 0 216 a
272 229 216 0 0 432 a
272 229 216 272 0 432 a
272 229 216 272 229 432 a
272 229 216 0 229 432 a
285 182 138 272 0 216 a
285 182 138 272 182 216 a
236 124 188 272 364 216 a
272 234 105 0 229 216 a
272 234 105 0 229 321 a
285 182 138 0 229 0 a
285 182 138 285 0 0 a
285 182 138 285 182 0 a
240 126 135 285 364 0 a
246 80 140 0 411 0 a
16
272 229 216 0 0 0 a
272 229 216 0 0 216 a
272 229 216 0 0 432 a
272 229 216 272 0 432 a
272 229 216 272 229 432 a
272 229 216 0 229 432 a
285 182 138 272 0 216 a
285 182 138 272 182 216 a
236 124 188 272 364 216 a
272 234 105 0 229 216 a
272 234 105 0 229 321 a
285 182 138 0 229 0 a
285 182 138 285 0 0 a
285 182 138 285 182 0 a
240 126 135 285 364 0 a
246 80 140 0 411 0 a
16
272 229 216 0 0 0 a
272 229 216 0 0 216 a
272 229 216 0 0 432 a
272 229 216 272 0 432 a
272 229 216 272 229 432 a
272 229 216 0 229 432 a
285 182 138 272 0 216 a
285 182 138 272 182 216 a
236 124 188 272 364 216 a
272 234 105 0 229 216 a
272 234 105 0 229 321 a
285 182 138 0 229 0 a
285 182 138 285 0 0 a
285 182 138 285 182 0 a
240 126 135 285 364 0 a
246 80 140 0 411 0 a
16
272 229 216 0 0 0 a
272 229 216 0 0 216 a
272 229 216 0 0 432 a
272 229 216 272 0 432 a
272 229 216 272 229 432 a
272 229 216 0 229 432 a
285 182 138 272 0 216 a
285 182 138 272 182 216 a
236 124 188 272 364 216 a
272 234 105 0 229 216 a
272 234 105 0 229 321 a
285 182 138 0 229 0 a
285 182 138 285 0 0 a
285 182 138 285 182 0 a
240 126 135 285 364 0 a
246 80 140 0 411 0 a
16
272 229 216 0 0 0 a
272 229 216 0 0 216 a
272 229 216 0 0 432 a
272 229 216 272 0 432 a
272 229 216 272 229 432 a
272 229 216 0 229 432 a
285 182 138 272 0 216 a
285 182 138 272 182 216 a
236 124 188 272 364 216 a
272 234 105 0 229 216 a
272 234 105 0 229 321 a
285 182 138 0 229 0 a
285 182 138 285 0 0 a
285 182 138 285 182 0 a
240 126 135 285 364 0 a
246 80 140 0 411 0 a
15
272 229 216 0 0 0 a
272 229 216 0 0 216 a
272 229 216 0 0 432 a
272 229 216 272 0 432 a
272 229 216 272 229 432 a
272 229 216 0 229 432 a
285 182 138 272 0 216 a
285 182 138 272 182 216 a
236 124 188 272 364 216 a
272 234 105 0 229 216 a
272 234 105 0 229 321 a
285 182 138 0 229 0 a
285 182 138 285 0 0 a
285 182 138 285 182 0 a
240 135 126 285 364 0 a
